c 1 CONFIG_SSL_PRIVATE_KEY_LOCATION
c 2 CONFIG_PERL_SAMPLES
c 3 CONFIG_SSL_X509_COMMON_NAME
c 4 CONFIG_VBNET_BINDINGS
c 5 CONFIG_WIN32_USE_CRYPTO_LIB
c 6 CONFIG_USE_DEV_URANDOM
c 7 CONFIG_VISUAL_STUDIO_8_0_alt
c 8 CONFIG_SSL_ENABLE_CLIENT
c 9 CONFIG_HTTP_TIMEOUT
c 10 CONFIG_BIGINT_CLASSICAL
c 11 CONFIG_HTTP_HAS_AUTHORIZATION
c 12 CONFIG_BIGINT_MONTGOMERY_alt
c 13 CONFIG_VISUAL_STUDIO_7_0_BASE
c 14 CONFIG_BIGINT_MONTGOMERY
c 15 CONFIG_SSL_HAS_PEM
c 16 CONFIG_HTTP_PORT
c 17 CONFIG_HTTP_BUILD_LUA
c 18 CONFIG_JAVA_HOME
c 19 CONFIG_HTTP_HAS_CGI
c 20 CONFIG_PERL_BINDINGS
c 21 CONFIG_SSL_FULL_MODE
c 22 CONFIG_HTTP_VERBOSE
c 23 CONFIG_EXTRA_CFLAGS_OPTIONS
c 24 CONFIG_SSL_USE_PKCS12
c 25 CONFIG_SSL_GENERATE_X509_CERT
c 26 CONFIG_C_SAMPLES
c 27 CONFIG_HTTP_ENABLE_DIFFERENT_USER
c 28 CONFIG_PERFORMANCE_TESTING
c 29 CONFIG_STRIP_UNWANTED_SECTIONS
c 30 CONFIG_SSL_X509_ORGANIZATION_UNIT_NAME
c 31 CONFIG_SSL_PROT_HIGH_alt
c 32 CONFIG_JAVA_SAMPLES
c 33 CONFIG_PERL_CORE
c 34 CONFIG_HTTP_HTTPS_PORT
c 35 CONFIG_HTTP_SESSION_CACHE_SIZE
c 36 CONFIG_HTTP_USER
c 37 CONFIG_PLATFORM_CYGWIN
c 38 CONFIG_PLATFORM_LINUX_alt
c 39 CONFIG_SSL_CERT_VERIFICATION
c 40 CONFIG_X509_MAX_CA_CERTS
c 41 CONFIG_HTTP_LUA_CGI_LAUNCHER
c 42 CONFIG_VISUAL_STUDIO_8_0_BASE
c 43 CONFIG_VBNET_SAMPLES
c 44 SQU_KARATSUBA_THRESH
c 45 CONFIG_SSL_TEST
c 46 CONFIG_SSL_X509_CERT_LOCATION
c 47 CONFIG_BIGINT_CRT
c 48 CONFIG_EXTRA_LDFLAGS_OPTIONS
c 49 CONFIG_SSL_CERT_VERIFICATION_alt
c 50 CONFIG_PERL_LIB
c 51 CONFIG_SAMPLES
c 52 CONFIG_SSL_MAX_CERTS
c 53 CONFIG_VISUAL_STUDIO_7_0
c 54 CONFIG_AXTLSWRAP
c 55 CONFIG_OPENSSL_COMPATIBLE
c 56 CONFIG_HTTP_ENABLE_LUA
c 57 CONFIG_SSL_USE_DEFAULT_KEY
c 58 CONFIG_BIGINT_SLIDING_WINDOW
c 59 CONFIG_HTTP_HAS_IPV6
c 60 CONFIG_LUA_BINDINGS
c 61 CONFIG_HTTP_STATIC_BUILD
c 62 CONFIG_SSL_CTX_MUTEXING
c 63 CONFIG_SSL_PROT_LOW
c 64 CONFIG_LUA_SAMPLES
c 65 CONFIG_AXHTTPD
c 66 PREFIX
c 67 CONFIG_SSL_PROT_HIGH
c 68 CONFIG_HTTP_CGI_EXTENSIONS
c 69 CONFIG_CSHARP_SAMPLES
c 70 CONFIG_BIGINT_BARRETT
c 71 HAVE_DOT_CONFIG
c 72 CONFIG_SSL_EXPIRY_TIME
c 73 CONFIG_DEBUG
c 74 CONFIG_SSL_ENABLE_V23_HANDSHAKE
c 75 CONFIG_BIGINT_CHECK_ON
c 76 CONFIG_VISUAL_STUDIO_8_0
c 77 CONFIG_BIGINT_KARATSUBA
c 78 CONFIG_JAVA_BINDINGS
c 79 CONFIG_PLATFORM_LINUX
c 80 root
c 81 CONFIG_SSL_PRIVATE_KEY_PASSWORD
c 82 CONFIG_DOT_NET_FRAMEWORK_BASE
c 83 CONFIG_PLATFORM_WIN32
c 84 CONFIG_HTTP_LUA_PREFIX
c 85 MUL_KARATSUBA_THRESH
c 86 CONFIG_CSHARP_BINDINGS
c 87 CONFIG_LUA_CORE
c 88 CONFIG_BINDINGS
c 89 CONFIG_HTTP_DIRECTORIES
c 90 CONFIG_SSL_X509_ORGANIZATION_NAME
c 91 CONFIG_SSL_SKELETON_MODE
c 92 CONFIG_SSL_PROT_MEDIUM
c 93 CONFIG_HTTP_IS_DAEMON
c 94 CONFIG_SSL_SERVER_ONLY
c 95 CONFIG_HTTP_WEBROOT
c 96 CONFIG_BIGINT_SQUARE
p cnf 96 203
80 0
7 -53 0
7 -76 0
53 76 -7 0
-53 -76 0
12 -10 0
12 -14 0
12 -70 0
10 14 70 -12 0
-10 -14 0
-10 -70 0
-14 -70 0
19 -68 0
19 -56 0
68 -19 0
20 -50 0
20 -33 0
50 -20 0
33 -20 0
25 -30 0
25 -90 0
25 -3 0
30 -25 0
90 -25 0
3 -25 0
27 -36 0
36 -27 0
31 -63 0
31 -92 0
31 -67 0
63 92 67 -31 0
-63 -92 0
-63 -67 0
-92 -67 0
38 -79 0
38 -37 0
38 -83 0
79 37 83 -38 0
-79 -37 0
-79 -83 0
-37 -83 0
49 -94 0
49 -39 0
49 -8 0
49 -21 0
49 -91 0
94 39 8 21 91 -49 0
-94 -39 0
-94 -8 0
-94 -21 0
-94 -91 0
-39 -8 0
-39 -21 0
-39 -91 0
-8 -21 0
-8 -91 0
-21 -91 0
51 -32 0
51 -43 0
51 -2 0
51 -69 0
51 -64 0
51 -26 0
56 -41 0
56 -17 0
56 -84 0
41 -56 0
84 -56 0
57 -1 0
1 -57 0
60 -87 0
87 -60 0
73 -29 0
77 -44 0
77 -85 0
44 -77 0
85 -77 0
78 -18 0
18 -78 0
80 -7 0
80 -54 0
80 -12 0
80 -5 0
80 -78 0
80 -45 0
80 -73 0
80 -96 0
80 -55 0
80 -77 0
80 -42 0
80 -38 0
80 -28 0
80 -89 0
80 -31 0
80 -13 0
80 -60 0
80 -49 0
80 -34 0
80 -72 0
80 -22 0
80 -27 0
80 -75 0
80 -35 0
80 -71 0
80 -58 0
80 -6 0
80 -59 0
80 -40 0
80 -81 0
80 -74 0
80 -46 0
80 -61 0
80 -25 0
80 -16 0
80 -15 0
80 -82 0
80 -24 0
80 -93 0
80 -88 0
80 -19 0
80 -52 0
80 -47 0
80 -20 0
80 -51 0
80 -23 0
80 -11 0
80 -9 0
80 -62 0
80 -65 0
80 -95 0
80 -48 0
80 -66 0
80 -57 0
7 -80 0
12 -80 0
42 -80 0
38 -80 0
31 -80 0
13 -80 0
49 -80 0
34 -80 0
72 -80 0
35 -80 0
40 -80 0
81 -80 0
46 -80 0
16 -80 0
82 -80 0
52 -80 0
23 -80 0
9 -80 0
95 -80 0
48 -80 0
66 -80 0
88 -86 0
88 -4 0
-83 83 66 0
-83 -66 -83 0
-83 83 73 29 0
-83 -29 -83 0
-73 83 73 29 0
-73 -29 -73 0
-57 -81 0
15 -81 0
-25 -46 0
-57 -46 0
-91 -46 0
-94 94 91 40 0
-94 -40 -94 0
-91 94 91 40 0
-91 -40 -91 0
83 -5 0
21 -45 0
-25 -45 0
86 4 -86 82 0
86 4 -4 82 0
86 4 -82 86 4 0
51 -51 -86 69 0
51 -69 51 0
86 -51 -86 69 0
86 -69 86 0
51 -51 -4 43 0
51 -43 51 0
4 -51 -4 43 0
4 -43 4 0
51 -51 -78 32 0
51 -32 51 0
78 -51 -78 32 0
78 -32 78 0
51 -51 -20 2 0
51 -2 51 0
20 -51 -20 2 0
20 -2 20 0
51 -51 -60 64 0
51 -64 51 0
60 -51 -60 64 0
60 -64 60 0
-91 91 -77 -96 44 0
-91 -44 -91 0
77 91 -77 -96 44 0
77 -44 77 0
96 91 -77 -96 44 0
96 -44 96 0
